%%% static parameters %%%
timespan = 1;
Fact = [4];
Distr1 = [15];
Distr2 = [30];
Clients_N = [300];
Demand_W = [15];
Lt0 = [4];
Lt1 = [4];
SS_ = [0.85];
DS_D = [8];
K = [200];
MA = [500];
%%% dynamic parameters %%%
lost_ratio_sales_ret_th = 0.7391406496985584;
lost_ratio_sales_ret_w = 52;
lost_ratio_sales_dis_th = 0.34935536158123337;
lost_ratio_sales_dis_w = 32;
lost_ratio_sales_fac_th = 0.5875788350986564;
lost_ratio_sales_fac_w = 89;
stock_customer_MA_mean_relative_th = 0.8938124542434863;
stock_customer_MA_mean_relative_w = 18;
stock_distributor_MA_mean_relative_th = 0.7642544554882;
stock_distributor_MA_mean_relative_w = 57;
stock_retailer_MA_mean_relative_th = 0.7397691414944279;
stock_retailer_MA_mean_relative_w = 5;
stock_factory_MA_mean_relative_th = 0.4154955057501195;
stock_factory_MA_mean_relative_w = 57;
